c File: instances/40_0.10_3.col
c
c Description: Random graph of size 40 vertices and P(0.1) of edges between any two vertices.
p col 40 780
e 1 37
e 2 12
e 2 23
e 2 26
e 3 6
e 3 12
e 4 6
e 4 19
e 4 28
e 4 31
e 5 33
e 6 7
e 6 29
e 7 13
e 7 22
e 7 40
e 8 13
e 8 22
e 8 30
e 8 35
e 8 39
e 9 17
e 9 18
e 9 19
e 9 25
e 9 31
e 10 23
e 10 24
e 10 37
e 11 29
e 12 13
e 12 16
e 12 28
e 13 29
e 13 32
e 14 22
e 14 26
e 14 29
e 14 32
e 14 35
e 14 38
e 15 24
e 15 30
e 15 39
e 16 18
e 17 20
e 17 25
e 18 19
e 18 20
e 18 26
e 18 33
e 18 34
e 18 36
e 20 31
e 21 30
e 21 37
e 22 27
e 24 36
e 25 33
e 25 36
e 26 32
e 26 35
e 28 39
e 29 31
e 29 33
e 31 34
e 32 33
e 32 35
e 33 40
e 34 36